100
32
28
18
15
8
27
1
1
24
10
9
13
9
9
9
17
4
2
2
1
1
1
1
1
1
3
17
3
2
1
6
17
1
2
2
20
1
1
21
1
3
1
1
2
3
18
21
2
1
1
1
4
2
1
4
4
1
3
18
5
3
3
1
2
3
1
4
2
1
1
2
16
1
1
4
2
1
1
3
17
1
8
1
2
2
1
20
1
3
4
1
1
1
1
1
1
2
2
1
1
1